c File: instances/36_0.30_3.col
c
c Description: Random graph of size 36 vertices and P(0.3) of edges between any two vertices.
p col 36 630
e 1 2
e 1 11
e 1 17
e 1 22
e 1 34
e 1 35
e 1 36
e 2 3
e 2 10
e 2 11
e 2 12
e 2 14
e 2 21
e 2 22
e 2 23
e 2 25
e 2 29
e 2 32
e 2 34
e 3 6
e 3 13
e 3 17
e 3 19
e 3 24
e 3 35
e 3 36
e 4 8
e 4 9
e 4 17
e 4 18
e 4 21
e 4 31
e 4 32
e 4 36
e 5 6
e 5 11
e 5 13
e 5 14
e 5 15
e 5 18
e 5 20
e 5 25
e 5 26
e 5 28
e 5 35
e 6 7
e 6 10
e 6 12
e 6 16
e 6 20
e 6 27
e 6 33
e 6 34
e 7 12
e 7 15
e 7 17
e 7 22
e 7 24
e 7 27
e 7 29
e 8 9
e 8 12
e 8 16
e 8 25
e 8 27
e 8 33
e 9 12
e 9 14
e 9 22
e 9 23
e 9 26
e 9 31
e 9 32
e 9 33
e 9 34
e 10 16
e 10 20
e 10 21
e 10 28
e 10 30
e 10 32
e 11 15
e 11 21
e 11 23
e 11 24
e 11 27
e 11 31
e 12 14
e 12 21
e 12 25
e 12 26
e 12 27
e 12 29
e 12 30
e 12 31
e 12 32
e 13 14
e 13 15
e 13 21
e 13 22
e 13 24
e 13 26
e 13 35
e 14 16
e 14 21
e 14 23
e 14 26
e 14 31
e 14 34
e 15 19
e 15 21
e 15 22
e 15 26
e 15 27
e 15 28
e 15 31
e 15 32
e 16 21
e 16 34
e 17 18
e 17 20
e 17 26
e 17 30
e 17 31
e 18 27
e 18 28
e 18 29
e 19 23
e 19 25
e 19 26
e 19 27
e 19 31
e 19 33
e 19 34
e 19 35
e 19 36
e 20 21
e 20 22
e 20 28
e 20 30
e 20 35
e 21 24
e 21 25
e 21 26
e 21 29
e 21 36
e 22 23
e 22 24
e 22 25
e 22 26
e 22 30
e 22 33
e 22 35
e 23 26
e 23 32
e 24 26
e 24 27
e 25 26
e 25 27
e 25 29
e 25 32
e 25 36
e 26 34
e 26 35
e 26 36
e 27 29
e 27 34
e 27 35
e 28 32
e 28 34
e 29 30
e 29 33
e 30 33
e 30 34
e 31 36
e 32 34
e 32 35
e 32 36
e 33 35